Maximize
 0
Subject To
 epc_0!1: +60.95292660462286 y_1!1_2!1 -93.49439576345782 y_1!2_2!1 -51.444641722134655 y_1!3_2!1 -31.03295145934007 y_1!1_2!2 +54.837715221379995 y_1!2_2!2 -89.7694881906705 y_1!3_2!2 +97.0721409060261 y_1!1_2!3 +67.99500634491562 y_1!2_2!3 +76.66665902956146 y_1!3_2!3 + lambda_0!1 - mu_0 = 0
 epc_0!2: +88.59217448270496 y_1!1_2!1 -64.38110156729019 y_1!2_2!1 +86.88303090942227 y_1!3_2!1 -41.30252987772138 y_1!1_2!2 +56.46956994501505 y_1!2_2!2 +91.79037659500167 y_1!3_2!2 -93.6355392879176 y_1!1_2!3 -77.27698113169868 y_1!2_2!3 -57.08677541368099 y_1!3_2!3 + lambda_0!2 - mu_0 = 0
 epc_0!3: -52.2589297936376 y_1!1_2!1 -95.4436636706642 y_1!2_2!1 -30.18578214852215 y_1!3_2!1 -36.01923390532065 y_1!1_2!2 +82.41578459767419 y_1!2_2!2 +89.2885859369957 y_1!3_2!2 +40.03829108620499 y_1!1_2!3 +34.70581644480825 y_1!2_2!3 +84.17072676147069 y_1!3_2!3 + lambda_0!3 - mu_0 = 0
 dc_0: x_0!1 + x_0!2 + x_0!3 = 1
 bc_0!1: lambda_0!1 +292.5158045766903 x_0!1 <= 292.5158045766903
 bc_0!2: lambda_0!2 +292.5158045766903 x_0!2 <= 292.5158045766903
 bc_0!3: lambda_0!3 +292.5158045766903 x_0!3 <= 292.5158045766903
 sum_0!1: y_1!1_2!1 - x_1!1 - x_2!1 >= -1
 idk_0!1!1: y_1!1_2!1 - x_1!1 <= 0
 idk_0!1!2: y_1!1_2!1 - x_2!1 <= 0
 sum_0!2: y_1!2_2!1 - x_1!2 - x_2!1 >= -1
 idk_0!2!1: y_1!2_2!1 - x_1!2 <= 0
 idk_0!2!2: y_1!2_2!1 - x_2!1 <= 0
 sum_0!3: y_1!3_2!1 - x_1!3 - x_2!1 >= -1
 idk_0!3!1: y_1!3_2!1 - x_1!3 <= 0
 idk_0!3!2: y_1!3_2!1 - x_2!1 <= 0
 sum_0!4: y_1!1_2!2 - x_1!1 - x_2!2 >= -1
 idk_0!4!1: y_1!1_2!2 - x_1!1 <= 0
 idk_0!4!2: y_1!1_2!2 - x_2!2 <= 0
 sum_0!5: y_1!2_2!2 - x_1!2 - x_2!2 >= -1
 idk_0!5!1: y_1!2_2!2 - x_1!2 <= 0
 idk_0!5!2: y_1!2_2!2 - x_2!2 <= 0
 sum_0!6: y_1!3_2!2 - x_1!3 - x_2!2 >= -1
 idk_0!6!1: y_1!3_2!2 - x_1!3 <= 0
 idk_0!6!2: y_1!3_2!2 - x_2!2 <= 0
 sum_0!7: y_1!1_2!3 - x_1!1 - x_2!3 >= -1
 idk_0!7!1: y_1!1_2!3 - x_1!1 <= 0
 idk_0!7!2: y_1!1_2!3 - x_2!3 <= 0
 sum_0!8: y_1!2_2!3 - x_1!2 - x_2!3 >= -1
 idk_0!8!1: y_1!2_2!3 - x_1!2 <= 0
 idk_0!8!2: y_1!2_2!3 - x_2!3 <= 0
 sum_0!9: y_1!3_2!3 - x_1!3 - x_2!3 >= -1
 idk_0!9!1: y_1!3_2!3 - x_1!3 <= 0
 idk_0!9!2: y_1!3_2!3 - x_2!3 <= 0
 epc_1!1: -13.54107959534494 y_0!1_2!1 -41.61231272131525 y_0!2_2!1 -62.23644857171673 y_0!3_2!1 -74.02538447612936 y_0!1_2!2 +12.125206987094543 y_0!2_2!2 +43.4860593896 y_0!3_2!2 -97.71689100152497 y_0!1_2!3 -20.992362058399962 y_0!2_2!3 +82.3049907547132 y_0!3_2!3 + lambda_1!1 - mu_1 = 0
 epc_1!2: +88.31075826460918 y_0!1_2!1 +4.126878415757076 y_0!2_2!1 -29.257942895201978 y_0!3_2!1 -54.06993230261526 y_0!1_2!2 -21.69639321725792 y_0!2_2!2 +53.64542850225732 y_0!3_2!2 +52.09377573425854 y_0!1_2!3 +88.5647716330742 y_0!2_2!3 -15.084938402309007 y_0!3_2!3 + lambda_1!2 - mu_1 = 0
 epc_1!3: -1.641851007629569 y_0!1_2!1 +51.68237293435533 y_0!2_2!1 -56.05599227627751 y_0!3_2!1 -49.33346616547176 y_0!1_2!2 +74.02476424746743 y_0!2_2!2 -27.058401341029438 y_0!3_2!2 -27.525748185030835 y_0!1_2!3 +67.75421625640533 y_0!2_2!3 +73.05005183191284 y_0!3_2!3 + lambda_1!3 - mu_1 = 0
 dc_1: x_1!1 + x_1!2 + x_1!3 = 1
 bc_1!1: lambda_1!1 +292.5158045766903 x_1!1 <= 292.5158045766903
 bc_1!2: lambda_1!2 +292.5158045766903 x_1!2 <= 292.5158045766903
 bc_1!3: lambda_1!3 +292.5158045766903 x_1!3 <= 292.5158045766903
 sum_1!1: y_0!1_2!1 - x_0!1 - x_2!1 >= -1
 idk_1!1!0: y_0!1_2!1 - x_0!1 <= 0
 idk_1!1!2: y_0!1_2!1 - x_2!1 <= 0
 sum_1!2: y_0!2_2!1 - x_0!2 - x_2!1 >= -1
 idk_1!2!0: y_0!2_2!1 - x_0!2 <= 0
 idk_1!2!2: y_0!2_2!1 - x_2!1 <= 0
 sum_1!3: y_0!3_2!1 - x_0!3 - x_2!1 >= -1
 idk_1!3!0: y_0!3_2!1 - x_0!3 <= 0
 idk_1!3!2: y_0!3_2!1 - x_2!1 <= 0
 sum_1!4: y_0!1_2!2 - x_0!1 - x_2!2 >= -1
 idk_1!4!0: y_0!1_2!2 - x_0!1 <= 0
 idk_1!4!2: y_0!1_2!2 - x_2!2 <= 0
 sum_1!5: y_0!2_2!2 - x_0!2 - x_2!2 >= -1
 idk_1!5!0: y_0!2_2!2 - x_0!2 <= 0
 idk_1!5!2: y_0!2_2!2 - x_2!2 <= 0
 sum_1!6: y_0!3_2!2 - x_0!3 - x_2!2 >= -1
 idk_1!6!0: y_0!3_2!2 - x_0!3 <= 0
 idk_1!6!2: y_0!3_2!2 - x_2!2 <= 0
 sum_1!7: y_0!1_2!3 - x_0!1 - x_2!3 >= -1
 idk_1!7!0: y_0!1_2!3 - x_0!1 <= 0
 idk_1!7!2: y_0!1_2!3 - x_2!3 <= 0
 sum_1!8: y_0!2_2!3 - x_0!2 - x_2!3 >= -1
 idk_1!8!0: y_0!2_2!3 - x_0!2 <= 0
 idk_1!8!2: y_0!2_2!3 - x_2!3 <= 0
 sum_1!9: y_0!3_2!3 - x_0!3 - x_2!3 >= -1
 idk_1!9!0: y_0!3_2!3 - x_0!3 <= 0
 idk_1!9!2: y_0!3_2!3 - x_2!3 <= 0
 epc_2!1: -59.03323845718287 y_0!1_1!1 +16.92343981650086 y_0!2_1!1 +15.697103125878286 y_0!3_1!1 -86.72715415794197 y_0!1_1!2 +33.34189168026015 y_0!2_1!2 +69.69025123732686 y_0!3_1!2 -2.843943359552398 y_0!1_1!3 -97.39809045685868 y_0!2_1!3 +94.44762153920863 y_0!3_1!3 + lambda_2!1 - mu_2 = 0
 epc_2!2: -58.809856041292655 y_0!1_1!1 +87.6524003686672 y_0!2_1!1 +31.599773624693114 y_0!3_1!1 -36.12275708452004 y_0!1_1!2 -60.438495367025105 y_0!2_1!2 -45.85118325561237 y_0!3_1!2 -32.79380544236024 y_0!1_1!3 +50.9154899321133 y_0!2_1!3 +11.484028418399703 y_0!3_1!3 + lambda_2!2 - mu_2 = 0
 epc_2!3: -58.81900402506608 y_0!1_1!1 +77.59599581297238 y_0!2_1!1 +16.00878175959292 y_0!3_1!1 -59.86366696944554 y_0!1_1!2 -17.59229975411533 y_0!2_1!2 +45.55505328333874 y_0!3_1!2 -7.449055365517125 y_0!1_1!3 +59.77365819614454 y_0!2_1!3 +4.023420586392561 y_0!3_1!3 + lambda_2!3 - mu_2 = 0
 dc_2: x_2!1 + x_2!2 + x_2!3 = 1
 bc_2!1: lambda_2!1 +292.5158045766903 x_2!1 <= 292.5158045766903
 bc_2!2: lambda_2!2 +292.5158045766903 x_2!2 <= 292.5158045766903
 bc_2!3: lambda_2!3 +292.5158045766903 x_2!3 <= 292.5158045766903
 sum_2!1: y_0!1_1!1 - x_0!1 - x_1!1 >= -1
 idk_2!1!0: y_0!1_1!1 - x_0!1 <= 0
 idk_2!1!1: y_0!1_1!1 - x_1!1 <= 0
 sum_2!2: y_0!2_1!1 - x_0!2 - x_1!1 >= -1
 idk_2!2!0: y_0!2_1!1 - x_0!2 <= 0
 idk_2!2!1: y_0!2_1!1 - x_1!1 <= 0
 sum_2!3: y_0!3_1!1 - x_0!3 - x_1!1 >= -1
 idk_2!3!0: y_0!3_1!1 - x_0!3 <= 0
 idk_2!3!1: y_0!3_1!1 - x_1!1 <= 0
 sum_2!4: y_0!1_1!2 - x_0!1 - x_1!2 >= -1
 idk_2!4!0: y_0!1_1!2 - x_0!1 <= 0
 idk_2!4!1: y_0!1_1!2 - x_1!2 <= 0
 sum_2!5: y_0!2_1!2 - x_0!2 - x_1!2 >= -1
 idk_2!5!0: y_0!2_1!2 - x_0!2 <= 0
 idk_2!5!1: y_0!2_1!2 - x_1!2 <= 0
 sum_2!6: y_0!3_1!2 - x_0!3 - x_1!2 >= -1
 idk_2!6!0: y_0!3_1!2 - x_0!3 <= 0
 idk_2!6!1: y_0!3_1!2 - x_1!2 <= 0
 sum_2!7: y_0!1_1!3 - x_0!1 - x_1!3 >= -1
 idk_2!7!0: y_0!1_1!3 - x_0!1 <= 0
 idk_2!7!1: y_0!1_1!3 - x_1!3 <= 0
 sum_2!8: y_0!2_1!3 - x_0!2 - x_1!3 >= -1
 idk_2!8!0: y_0!2_1!3 - x_0!2 <= 0
 idk_2!8!1: y_0!2_1!3 - x_1!3 <= 0
 sum_2!9: y_0!3_1!3 - x_0!3 - x_1!3 >= -1
 idk_2!9!0: y_0!3_1!3 - x_0!3 <= 0
 idk_2!9!1: y_0!3_1!3 - x_1!3 <= 0
Bounds
 mu_0 free
 mu_1 free
 mu_2 free
Binary
 x_0!1 x_0!2 x_0!3 x_1!1 x_1!2 x_1!3 x_2!1 x_2!2 x_2!3
End
